sat
(= |goto_symex::&92;guard#1| true)
(= |goto_symex::&92;guard#2| false)
(= |memory_model::choice_rf_1_4_0_11_T_0| false)
(= |memory_model::choice_rf_1_4_2_17_T_1| false)
(= |memory_model::choice_rf_1_4_3_39_T_2| true)
(= |memory_model::choice_rf_1_4_4_20_T_3| false)
(= |memory_model::choice_rf_2_16_0_11_T_4| false)
(= |memory_model::choice_rf_2_16_1_5_T_5| false)
(= |memory_model::choice_rf_2_16_3_39_T_6| false)
(= |memory_model::choice_rf_2_16_4_20_T_7| true)
(= |memory_model::choice_rf_3_38_0_11_T_8| false)
(= |memory_model::choice_rf_3_38_1_5_T_9| false)
(= |memory_model::choice_rf_3_38_2_17_T_10| true)
(= |memory_model::choice_rf_3_38_4_20_T_11| false)
(= |memory_model::choice_rf_4_19_0_11_T_12| true)
(= |memory_model::choice_rf_4_19_1_5_T_13| false)
(= |memory_model::choice_rf_4_19_2_17_T_14| false)
(= |memory_model::choice_rf_4_19_3_39_T_15| false)
(= |memory_model::choice_rf_0_46_0_9_T_16| false)
(= |memory_model::choice_rf_0_46_0_42_T_17| true)
(= |memory_model::choice_rf_0_51_0_9_T_18| false)
(= |memory_model::choice_rf_0_51_0_42_T_19| false)
(= |memory_model::choice_rf_0_51_0_47_T_20| true)
(= |memory_model::choice_rf_0_56_0_9_T_21| false)
(= |memory_model::choice_rf_0_56_0_42_T_22| false)
(= |memory_model::choice_rf_0_56_0_47_T_23| false)
(= |memory_model::choice_rf_0_56_0_52_T_24| true)
(= |memory_model::choice_rf_0_88_0_20_F_25| false)
(= |memory_model::choice_rf_0_88_1_1_F_26| false)
(= |memory_model::choice_rf_0_88_2_0_F_27| true)
(= |memory_model::choice_rf_0_60_0_12_F_28| false)
(= |memory_model::choice_rf_0_60_1_3_F_29| true)
(= |memory_model::choice_rf_0_60_2_15_F_30| false)
(= |memory_model::choice_rf_0_60_3_37_F_31| false)
(= |memory_model::choice_rf_0_60_4_18_F_32| false)
(= |memory_model::choice_rf_1_2_0_12_F_33| false)
(= |memory_model::choice_rf_1_2_2_15_F_34| true)
(= |memory_model::choice_rf_1_2_3_37_F_35| false)
(= |memory_model::choice_rf_1_2_4_18_F_36| false)
(= |memory_model::choice_rf_2_14_0_12_F_37| false)
(= |memory_model::choice_rf_2_14_1_3_F_38| false)
(= |memory_model::choice_rf_2_14_3_37_F_39| false)
(= |memory_model::choice_rf_2_14_4_18_F_40| true)
(= |memory_model::choice_rf_3_36_0_12_F_41| true)
(= |memory_model::choice_rf_3_36_1_3_F_42| false)
(= |memory_model::choice_rf_3_36_2_15_F_43| false)
(= |memory_model::choice_rf_3_36_4_18_F_44| false)
(= |memory_model::choice_rf_4_17_0_12_F_45| false)
(= |memory_model::choice_rf_4_17_1_3_F_46| false)
(= |memory_model::choice_rf_4_17_2_15_F_47| false)
(= |memory_model::choice_rf_4_17_3_37_F_48| true)
(= |memory_model::choice_rf_0_77_0_13_F_49| false)
(= |memory_model::choice_rf_0_77_4_2_F_50| true)
(= |memory_model::choice_rf_0_76_0_14_F_51| false)
(= |memory_model::choice_rf_0_76_4_4_F_52| true)
(= |memory_model::choice_rf_4_3_0_15_F_53| true)
(= |memory_model::choice_rf_4_3_1_0_F_54| false)
(= |memory_model::choice_rf_0_62_0_16_F_55| false)
(= |memory_model::choice_rf_0_62_0_61_F_56| true)
(= |memory_model::choice_rf_0_75_0_17_F_57| false)
(= |memory_model::choice_rf_0_103_0_17_F_58| false)
(= |memory_model::choice_rf_0_103_0_92_F_59| true)
(= |memory_model::choice_rf_0_104_0_17_F_60| false)
(= |memory_model::choice_rf_0_104_0_92_F_61| true)
(= |memory_model::choice_rf_0_63_0_21_F_62| false)
(= |memory_model::choice_rf_0_63_2_1_F_63| false)
(= |memory_model::choice_rf_0_63_2_13_F_64| true)
(= |memory_model::choice_rf_0_63_3_35_F_65| false)
(= |memory_model::choice_rf_0_63_4_16_F_66| false)
(= |memory_model::choice_rf_0_82_0_21_F_67| false)
(= |memory_model::choice_rf_0_82_0_74_F_68| true)
(= |memory_model::choice_rf_0_82_2_1_F_69| false)
(= |memory_model::choice_rf_0_82_2_13_F_70| false)
(= |memory_model::choice_rf_0_82_3_35_F_71| false)
(= |memory_model::choice_rf_0_82_4_16_F_72| false)
(= |memory_model::choice_rf_2_2_0_21_F_73| false)
(= |memory_model::choice_rf_2_2_0_74_F_74| false)
(= |memory_model::choice_rf_2_2_0_97_F_75| false)
(= |memory_model::choice_rf_2_2_2_1_F_76| false)
(= |memory_model::choice_rf_2_2_3_35_F_77| false)
(= |memory_model::choice_rf_2_2_4_16_F_78| true)
(= |memory_model::choice_rf_3_24_0_21_F_79| false)
(= |memory_model::choice_rf_3_24_0_74_F_80| false)
(= |memory_model::choice_rf_3_24_0_97_F_81| false)
(= |memory_model::choice_rf_3_24_2_1_F_82| true)
(= |memory_model::choice_rf_3_24_2_13_F_83| false)
(= |memory_model::choice_rf_3_24_4_16_F_84| false)
(= |memory_model::choice_rf_4_5_0_21_F_85| false)
(= |memory_model::choice_rf_4_5_0_74_F_86| false)
(= |memory_model::choice_rf_4_5_0_97_F_87| false)
(= |memory_model::choice_rf_4_5_2_1_F_88| false)
(= |memory_model::choice_rf_4_5_2_13_F_89| false)
(= |memory_model::choice_rf_4_5_3_35_F_90| true)
(= |memory_model::choice_rf_0_81_0_22_F_91| false)
(= |memory_model::choice_rf_0_83_0_23_F_92| false)
(= |memory_model::choice_rf_0_68_0_24_F_93| true)
(= |memory_model::choice_rf_0_84_0_24_F_94| false)
(= |memory_model::choice_rf_0_84_0_71_F_95| true)
(= |memory_model::choice_rf_3_8_0_24_F_96| true)
(= |memory_model::choice_rf_3_8_0_71_F_97| false)
(= |memory_model::choice_rf_3_8_0_93_F_98| false)
(= |memory_model::choice_rf_3_6_0_25_F_99| true)
(= |memory_model::choice_rf_2_7_0_26_F_100| true)
(= |memory_model::choice_rf_3_4_0_26_F_101| true)
(= |memory_model::choice_rf_3_4_2_10_F_102| false)
(= |memory_model::choice_rf_3_2_0_27_F_103| true)
(= |memory_model::choice_rf_3_29_0_27_F_104| false)
(= |memory_model::choice_rf_3_29_3_12_F_105| true)
(= |memory_model::choice_rf_3_1_0_28_F_106| true)
(= |memory_model::choice_rf_3_1_4_13_F_107| false)
(= |memory_model::choice_rf_4_10_0_28_F_108| true)
(= |memory_model::choice_rf_0_65_0_29_F_109| false)
(= |memory_model::choice_rf_0_65_3_17_F_110| true)
(= |memory_model::choice_rf_0_86_0_29_F_111| false)
(= |memory_model::choice_rf_0_86_0_70_F_112| true)
(= |memory_model::choice_rf_0_86_3_17_F_113| false)
(= |memory_model::choice_rf_3_7_0_29_F_114| false)
(= |memory_model::choice_rf_3_7_0_70_F_115| false)
(= |memory_model::choice_rf_3_7_0_91_F_116| false)
(= |memory_model::choice_rf_3_5_0_30_F_117| false)
(= |memory_model::choice_rf_2_4_0_31_F_118| false)
(= |memory_model::choice_rf_2_4_3_14_F_119| true)
(= |memory_model::choice_rf_3_3_0_31_F_120| false)
(= |memory_model::choice_rf_3_3_2_9_F_121| false)
(= |memory_model::choice_rf_3_10_0_32_F_122| false)
(= |memory_model::choice_rf_3_27_0_32_F_123| false)
(= |memory_model::choice_rf_3_27_3_13_F_124| true)
(= |memory_model::choice_rf_3_0_0_33_F_125| false)
(= |memory_model::choice_rf_3_0_4_12_F_126| false)
(= |memory_model::choice_rf_4_7_0_33_F_127| false)
(= |memory_model::choice_rf_4_7_3_15_F_128| true)
(= |memory_model::choice_rf_0_67_0_36_F_129| false)
(= |memory_model::choice_rf_0_67_3_20_F_130| true)
(= |memory_model::choice_rf_0_87_0_36_F_131| false)
(= |memory_model::choice_rf_0_87_3_20_F_132| true)
(= |memory_model::choice_rf_2_6_0_36_F_133| false)
(= |memory_model::choice_rf_2_6_0_96_F_134| false)
(= |memory_model::choice_rf_2_6_3_20_F_135| true)
(= |memory_model::choice_rf_3_11_0_36_F_136| true)
(= |memory_model::choice_rf_3_11_0_96_F_137| false)
(= |memory_model::choice_rf_3_28_0_36_F_138| false)
(= |memory_model::choice_rf_3_28_0_96_F_139| false)
(= |memory_model::choice_rf_3_28_3_20_F_140| true)
(= |memory_model::choice_rf_4_9_0_36_F_141| false)
(= |memory_model::choice_rf_4_9_0_96_F_142| false)
(= |memory_model::choice_rf_4_9_3_20_F_143| true)
(= |memory_model::choice_rf_0_69_0_37_F_144| false)
(= |memory_model::choice_rf_0_69_2_12_F_145| true)
(= |memory_model::choice_rf_0_69_3_18_F_146| false)
(= |memory_model::choice_rf_0_69_3_34_F_147| false)
(= |memory_model::choice_rf_0_69_4_15_F_148| false)
(= |memory_model::choice_rf_0_80_0_37_F_149| false)
(= |memory_model::choice_rf_0_80_0_73_F_150| true)
(= |memory_model::choice_rf_0_80_2_12_F_151| false)
(= |memory_model::choice_rf_0_80_3_18_F_152| false)
(= |memory_model::choice_rf_0_80_3_34_F_153| false)
(= |memory_model::choice_rf_0_80_4_15_F_154| false)
(= |memory_model::choice_rf_2_8_0_37_F_155| false)
(= |memory_model::choice_rf_2_8_0_73_F_156| false)
(= |memory_model::choice_rf_2_8_0_100_F_157| false)
(= |memory_model::choice_rf_2_8_3_18_F_158| false)
(= |memory_model::choice_rf_2_8_3_34_F_159| false)
(= |memory_model::choice_rf_2_8_4_15_F_160| true)
(= |memory_model::choice_rf_3_9_0_37_F_161| true)
(= |memory_model::choice_rf_3_9_0_73_F_162| false)
(= |memory_model::choice_rf_3_9_0_100_F_163| false)
(= |memory_model::choice_rf_3_9_2_12_F_164| false)
(= |memory_model::choice_rf_3_9_4_15_F_165| false)
(= |memory_model::choice_rf_3_30_0_37_F_166| false)
(= |memory_model::choice_rf_3_30_0_73_F_167| false)
(= |memory_model::choice_rf_3_30_0_100_F_168| false)
(= |memory_model::choice_rf_3_30_2_12_F_169| false)
(= |memory_model::choice_rf_3_30_3_18_F_170| true)
(= |memory_model::choice_rf_3_30_4_15_F_171| false)
(= |memory_model::choice_rf_4_11_0_37_F_172| false)
(= |memory_model::choice_rf_4_11_0_73_F_173| false)
(= |memory_model::choice_rf_4_11_0_100_F_174| false)
(= |memory_model::choice_rf_4_11_2_12_F_175| false)
(= |memory_model::choice_rf_4_11_3_18_F_176| false)
(= |memory_model::choice_rf_4_11_3_34_F_177| true)
(= |memory_model::choice_rf_0_64_0_38_F_178| false)
(= |memory_model::choice_rf_0_64_3_21_F_179| true)
(= |memory_model::choice_rf_0_90_0_38_F_180| false)
(= |memory_model::choice_rf_0_90_3_21_F_181| true)
(= |memory_model::choice_rf_2_3_0_38_F_182| false)
(= |memory_model::choice_rf_2_3_0_95_F_183| false)
(= |memory_model::choice_rf_2_3_3_21_F_184| true)
(= |memory_model::choice_rf_3_25_0_38_F_185| false)
(= |memory_model::choice_rf_3_25_0_95_F_186| false)
(= |memory_model::choice_rf_3_25_3_21_F_187| true)
(= |memory_model::choice_rf_4_6_0_38_F_188| false)
(= |memory_model::choice_rf_4_6_0_95_F_189| false)
(= |memory_model::choice_rf_4_6_3_21_F_190| true)
(= |memory_model::choice_rf_0_66_0_39_F_191| false)
(= |memory_model::choice_rf_0_66_2_11_F_192| true)
(= |memory_model::choice_rf_0_66_3_19_F_193| false)
(= |memory_model::choice_rf_0_66_3_33_F_194| false)
(= |memory_model::choice_rf_0_66_4_14_F_195| false)
(= |memory_model::choice_rf_0_85_0_39_F_196| false)
(= |memory_model::choice_rf_0_85_0_72_F_197| true)
(= |memory_model::choice_rf_0_85_2_11_F_198| false)
(= |memory_model::choice_rf_0_85_3_19_F_199| false)
(= |memory_model::choice_rf_0_85_3_33_F_200| false)
(= |memory_model::choice_rf_0_85_4_14_F_201| false)
(= |memory_model::choice_rf_2_5_0_39_F_202| false)
(= |memory_model::choice_rf_2_5_0_72_F_203| false)
(= |memory_model::choice_rf_2_5_0_94_F_204| false)
(= |memory_model::choice_rf_2_5_3_19_F_205| false)
(= |memory_model::choice_rf_2_5_3_33_F_206| false)
(= |memory_model::choice_rf_2_5_4_14_F_207| true)
(= |memory_model::choice_rf_3_26_0_39_F_208| false)
(= |memory_model::choice_rf_3_26_0_72_F_209| false)
(= |memory_model::choice_rf_3_26_0_94_F_210| false)
(= |memory_model::choice_rf_3_26_2_11_F_211| false)
(= |memory_model::choice_rf_3_26_3_19_F_212| true)
(= |memory_model::choice_rf_3_26_4_14_F_213| false)
(= |memory_model::choice_rf_4_8_0_39_F_214| false)
(= |memory_model::choice_rf_4_8_0_72_F_215| false)
(= |memory_model::choice_rf_4_8_0_94_F_216| false)
(= |memory_model::choice_rf_4_8_2_11_F_217| false)
(= |memory_model::choice_rf_4_8_3_19_F_218| false)
(= |memory_model::choice_rf_4_8_3_33_F_219| true)
(= |memory_model::choice_rf_0_89_0_40_F_220| false)
(= |memory_model::choice_rf_0_89_3_23_F_221| false)
(= |memory_model::choice_rf_0_89_4_0_F_222| true)
(= |memory_model::choice_rf_3_22_0_40_F_223| false)
(= |memory_model::choice_rf_3_22_4_0_F_224| false)
(= |memory_model::choice_rf_4_1_0_40_F_225| false)
(= |memory_model::choice_rf_4_1_3_23_F_226| false)
(= |memory_model::choice_rf_4_1_4_0_F_227| true)
(= |memory_model::choice_rf_0_78_0_18_F_228| false)
(= |memory_model::choice_rf_0_79_0_19_F_229| false)
(= |memory_model::choice_ws-ext_0_11_1_5_T_230| true)
(= |memory_model::choice_ws-ext_0_11_2_17_T_231| true)
(= |memory_model::choice_ws-ext_0_11_3_39_T_232| true)
(= |memory_model::choice_ws-ext_0_11_4_20_T_233| true)
(= |memory_model::choice_ws-ext_1_5_2_17_T_234| false)
(= |memory_model::choice_ws-ext_1_5_3_39_T_235| false)
(= |memory_model::choice_ws-ext_1_5_4_20_T_236| false)
(= |memory_model::choice_ws-ext_2_17_3_39_T_237| true)
(= |memory_model::choice_ws-ext_2_17_4_20_T_238| false)
(= |memory_model::choice_ws-ext_3_39_4_20_T_239| false)
(= |memory_model::choice_ws-ext_0_20_1_1_F_240| true)
(= |memory_model::choice_ws-ext_0_20_2_0_F_241| true)
(= |memory_model::choice_ws-ext_1_1_2_0_F_242| true)
(= |memory_model::choice_ws-ext_0_12_1_3_F_243| true)
(= |memory_model::choice_ws-ext_0_12_2_15_F_244| true)
(= |memory_model::choice_ws-ext_0_12_3_37_F_245| true)
(= |memory_model::choice_ws-ext_0_12_4_18_F_246| true)
(= |memory_model::choice_ws-ext_1_3_2_15_F_247| false)
(= |memory_model::choice_ws-ext_1_3_3_37_F_248| false)
(= |memory_model::choice_ws-ext_1_3_4_18_F_249| false)
(= |memory_model::choice_ws-ext_2_15_3_37_F_250| false)
(= |memory_model::choice_ws-ext_2_15_4_18_F_251| false)
(= |memory_model::choice_ws-ext_3_37_4_18_F_252| true)
(= |memory_model::choice_ws-ext_0_13_4_2_F_253| true)
(= |memory_model::choice_ws-ext_0_14_4_4_F_254| true)
(= |memory_model::choice_ws-ext_0_15_1_0_F_255| true)
(= |memory_model::choice_ws-ext_0_21_2_1_F_256| true)
(= |memory_model::choice_ws-ext_0_21_2_13_F_257| true)
(= |memory_model::choice_ws-ext_0_21_3_35_F_258| true)
(= |memory_model::choice_ws-ext_0_21_4_16_F_259| true)
(= |memory_model::choice_ws-ext_0_74_2_1_F_260| false)
(= |memory_model::choice_ws-ext_0_74_2_13_F_261| false)
(= |memory_model::choice_ws-ext_0_74_3_35_F_262| false)
(= |memory_model::choice_ws-ext_0_74_4_16_F_263| false)
(= |memory_model::choice_ws-ext_0_97_2_1_F_264| false)
(= |memory_model::choice_ws-ext_0_97_2_13_F_265| false)
(= |memory_model::choice_ws-ext_0_97_3_35_F_266| false)
(= |memory_model::choice_ws-ext_0_97_4_16_F_267| false)
(= |memory_model::choice_ws-ext_2_1_3_35_F_268| true)
(= |memory_model::choice_ws-ext_2_1_4_16_F_269| true)
(= |memory_model::choice_ws-ext_2_13_3_35_F_270| false)
(= |memory_model::choice_ws-ext_2_13_4_16_F_271| false)
(= |memory_model::choice_ws-ext_3_35_4_16_F_272| true)
(= |memory_model::choice_ws-ext_0_26_2_10_F_273| true)
(= |memory_model::choice_ws-ext_0_27_3_12_F_274| true)
(= |memory_model::choice_ws-ext_0_27_3_32_F_275| true)
(= |memory_model::choice_ws-ext_0_28_4_13_F_276| true)
(= |memory_model::choice_ws-ext_0_29_3_17_F_277| true)
(= |memory_model::choice_ws-ext_0_70_3_17_F_278| false)
(= |memory_model::choice_ws-ext_0_91_3_17_F_279| false)
(= |memory_model::choice_ws-ext_0_30_3_16_F_280| true)
(= |memory_model::choice_ws-ext_0_31_2_9_F_281| true)
(= |memory_model::choice_ws-ext_0_31_3_14_F_282| true)
(= |memory_model::choice_ws-ext_2_9_3_14_F_283| false)
(= |memory_model::choice_ws-ext_0_32_3_13_F_284| true)
(= |memory_model::choice_ws-ext_0_32_3_31_F_285| true)
(= |memory_model::choice_ws-ext_0_33_3_15_F_286| true)
(= |memory_model::choice_ws-ext_0_33_4_12_F_287| true)
(= |memory_model::choice_ws-ext_3_15_4_12_F_288| true)
(= |memory_model::choice_ws-ext_0_36_3_20_F_289| true)
(= |memory_model::choice_ws-ext_0_96_3_20_F_290| false)
(= |memory_model::choice_ws-ext_0_37_2_12_F_291| true)
(= |memory_model::choice_ws-ext_0_37_3_18_F_292| true)
(= |memory_model::choice_ws-ext_0_37_3_34_F_293| true)
(= |memory_model::choice_ws-ext_0_37_4_15_F_294| true)
(= |memory_model::choice_ws-ext_0_73_2_12_F_295| false)
(= |memory_model::choice_ws-ext_0_73_3_18_F_296| false)
(= |memory_model::choice_ws-ext_0_73_3_34_F_297| false)
(= |memory_model::choice_ws-ext_0_73_4_15_F_298| false)
(= |memory_model::choice_ws-ext_0_100_2_12_F_299| false)
(= |memory_model::choice_ws-ext_0_100_3_18_F_300| false)
(= |memory_model::choice_ws-ext_0_100_3_34_F_301| false)
(= |memory_model::choice_ws-ext_0_100_4_15_F_302| false)
(= |memory_model::choice_ws-ext_2_12_3_18_F_303| false)
(= |memory_model::choice_ws-ext_2_12_3_34_F_304| false)
(= |memory_model::choice_ws-ext_2_12_4_15_F_305| false)
(= |memory_model::choice_ws-ext_3_18_4_15_F_306| true)
(= |memory_model::choice_ws-ext_3_34_4_15_F_307| true)
(= |memory_model::choice_ws-ext_0_38_3_21_F_308| true)
(= |memory_model::choice_ws-ext_0_95_3_21_F_309| false)
(= |memory_model::choice_ws-ext_0_39_2_11_F_310| true)
(= |memory_model::choice_ws-ext_0_39_3_19_F_311| true)
(= |memory_model::choice_ws-ext_0_39_3_33_F_312| true)
(= |memory_model::choice_ws-ext_0_39_4_14_F_313| true)
(= |memory_model::choice_ws-ext_0_72_2_11_F_314| false)
(= |memory_model::choice_ws-ext_0_72_3_19_F_315| false)
(= |memory_model::choice_ws-ext_0_72_3_33_F_316| false)
(= |memory_model::choice_ws-ext_0_72_4_14_F_317| false)
(= |memory_model::choice_ws-ext_0_94_2_11_F_318| false)
(= |memory_model::choice_ws-ext_0_94_3_19_F_319| false)
(= |memory_model::choice_ws-ext_0_94_3_33_F_320| false)
(= |memory_model::choice_ws-ext_0_94_4_14_F_321| false)
(= |memory_model::choice_ws-ext_2_11_3_19_F_322| false)
(= |memory_model::choice_ws-ext_2_11_3_33_F_323| false)
(= |memory_model::choice_ws-ext_2_11_4_14_F_324| false)
(= |memory_model::choice_ws-ext_3_19_4_14_F_325| true)
(= |memory_model::choice_ws-ext_3_33_4_14_F_326| true)
(= |memory_model::choice_ws-ext_0_40_3_23_F_327| true)
(= |memory_model::choice_ws-ext_0_40_4_0_F_328| true)
(= |memory_model::choice_ws-ext_3_23_4_0_F_329| true)
(= |main$tmp_guard0#3| #b00000001)
(= |__CPROVER_next_thread_id#3| #b00000000000000000000000000000001)
(= |__CPROVER_next_thread_id#6| #b00000000000000000000000000000010)
(= |__CPROVER_next_thread_id#9| #b00000000000000000000000000000011)
(= |__unbuffered_cnt#2| #b00000000000000000000000000000100)
(= |y$w_buff0_used#2| #b00000000)
(= |y$r_buff0_thd0#2| #b00000000)
(= |y$w_buff0#2| #b00000000000000000000000000000010)
(= |y$w_buff1_used#2| #b00000000)
(= |y$r_buff1_thd0#2| #b00000000)
(= |y$w_buff1#2| #b00000000000000000000000000000000)
(= |y#2| #b00000000000000000000000000000010)
(= |y#4| #b00000000000000000000000000000010)
(= |y$w_buff0_used#6| #b00000000)
(= |y$w_buff1_used#6| #b00000000)
(= |y$r_buff0_thd0#8| #b00000000)
(= |y$r_buff1_thd0#7| #b00000000)
(= |nondet_symex::nondet0| #b00000000000000000000000000000000)
(= |weak$$choice0#2| #b00000000)
(= |weak$$choice0#3| #b10000000)
(= |nondet_symex::nondet1| #b10000000000000000000000000000000)
(= |weak$$choice2#2| #b00000001)
(= |weak$$choice2#3| #b10000000)
(= |y$flush_delayed#2| #b00000001)
(= |y$flush_delayed#3| #b10000000)
(= |y#6| #b00000000000000000000000000000010)
(= |y$mem_tmp#2| #b00000000000000000000000000000010)
(= |y$mem_tmp#3| #b10000000000000000000000000000000)
(= |y$w_buff0_used#11| #b00000000)
(= |y$r_buff0_thd0#11| #b00000000)
(= |y$w_buff1_used#9| #b00000000)
(= |y$r_buff1_thd0#9| #b00000000)
(= |y$w_buff0#4| #b00000000000000000000000000000010)
(= |y$w_buff1#4| #b00000000000000000000000000000000)
(= |y#9| #b00000000000000000000000000000010)
(= |y$w_buff0#10| #b00000000000000000000000000000010)
(= |y$w_buff1#10| #b00000000000000000000000000000000)
(= |y$w_buff0_used#23| #b00000000)
(= |y$w_buff1_used#17| #b00000000)
(= |y$r_buff0_thd0#33| #b00000000)
(= |y$r_buff1_thd0#19| #b00000000)
(= |x#2| #b00000000000000000000000000000010)
(= |z#2| #b00000000000000000000000000000010)
(= |__unbuffered_p3_EAX#2| #b00000000000000000000000000000010)
(= |__unbuffered_p3_EBX#2| #b00000000000000000000000000000000)
(= |main$tmp_guard1#2| #b00000000)
(= |main$tmp_guard1#3| #b00000001)
(= |y#13| #b00000000000000000000000000000010)
(= |y$flush_delayed#6| #b00000000)
(= |main$tmp_guard1#6| #b00000000)
(= |pthread_create::1::this_thread_id!1@0#0| #b10000000000000000000000000000000)
(= |__unbuffered_cnt#4| #b00000000000000000000000000000011)
(= |pthread_create::1::this_thread_id!2@0#0| #b00000000000000000000000000000000)
(= |y$w_buff0_used#31| #b00000000)
(= |y$r_buff0_thd2#2| #b00000000)
(= |y$w_buff0#12| #b00000000000000000000000000000010)
(= |y$w_buff1_used#21| #b00000000)
(= |y$r_buff1_thd2#2| #b00000000)
(= |y$w_buff1#12| #b00000000000000000000000000000000)
(= |y#16| #b00000000000000000000000000000010)
(= |__unbuffered_cnt#7| #b00000000000000000000000000000010)
(= |pthread_create::1::this_thread_id!3@0#0| #b10000000000000000000000000000000)
(= |y$w_buff0#14| #b00000000000000000000000000000000)
(= |y$w_buff0_used#34| #b00000000)
(= |y$r_buff0_thd0#38| #b00000000)
(= |y$r_buff1_thd0#21| #b00000000)
(= |y$r_buff1_thd0#22| #b00000000)
(= |y$r_buff0_thd1#2| #b00000000)
(= |y$r_buff1_thd1#2| #b00000000)
(= |y$r_buff1_thd1#3| #b10000000)
(= |y$r_buff0_thd2#5| #b00000000)
(= |y$r_buff1_thd2#5| #b00000000)
(= |y$r_buff1_thd2#6| #b10000000)
(= |y$r_buff0_thd3#2| #b00000000)
(= |y$r_buff1_thd3#2| #b00000000)
(= |y$r_buff1_thd3#3| #b00000000)
(= |y$r_buff0_thd4#2| #b00000000)
(= |y$r_buff1_thd4#2| #b00000000)
(= |y$r_buff1_thd4#3| #b10000000)
(= |y$r_buff0_thd3#4| #b00000001)
(= |z#4| #b00000000000000000000000000000001)
(= |z#5| #b00000000000000000000000000000010)
(= |y$w_buff0_used#37| #b00000001)
(= |y$r_buff0_thd3#6| #b00000001)
(= |y$w_buff0#17| #b00000000000000000000000000000010)
(= |y$w_buff1_used#25| #b00000000)
(= |y$r_buff1_thd3#5| #b00000000)
(= |y$w_buff1#15| #b00000000000000000000000000000000)
(= |y#19| #b00000000000000000000000000000001)
(= |y#21| #b00000000000000000000000000000010)
(= |y$w_buff0_used#41| #b00000000)
(= |y$w_buff1_used#29| #b00000000)
(= |y$r_buff0_thd3#12| #b00000001)
(= |y$r_buff1_thd3#10| #b00000000)
(= |__unbuffered_cnt#10| #b00000000000000000000000000000000)
(= |__unbuffered_cnt#12| #b00000000000000000000000000000001)
(= |pthread_create::1::this_thread_id!4@0#0| #b01100000000000000000000000000000)
(= |z#8| #b00000000000000000000000000000010)
(= |a#3| #b00000000000000000000000000000000)
(= |y$w_buff0_used#46| #b00000000)
(= |y$r_buff0_thd4#4| #b00000000)
(= |y$w_buff0#19| #b00000000000000000000000000000010)
(= |y$w_buff1_used#32| #b00000000)
(= |y$r_buff1_thd4#5| #b00000000)
(= |y$w_buff1#17| #b00000000000000000000000000000000)
(= |y#23| #b00000000000000000000000000000010)
(= |__unbuffered_cnt#14| #b00000000000000000000000000000001)
(= |__CPROVER_threads_exited#1$wclk$8| #b00100001)
(= |__CPROVER_threads_exited#2$rclk$8| #b11111110)
(= |__CPROVER_threads_exited#5$wclk$8| #b11111011)
(= |__CPROVER_threads_exited#7$wclk$8| #b11111101)
(= |__CPROVER_threads_exited#9$wclk$8| #b11111000)
(= |__CPROVER_threads_exited#4$rclk$8| #b11111010)
(= |__CPROVER_threads_exited#3$wclk$8| #b11111111)
(= |__CPROVER_threads_exited#6$rclk$8| #b11111100)
(= |__CPROVER_threads_exited#8$rclk$8| #b11101110)
(= |x#4$wclk$8| #b11000110)
(= |x#2$rclk$8| #b11111100)
(= |x#5$wclk$8| #b11000111)
(= |__unbuffered_cnt#6$wclk$8| #b11111000)
(= |__unbuffered_cnt#2$rclk$8| #b11111001)
(= |__unbuffered_cnt#9$wclk$8| #b11110111)
(= |__unbuffered_cnt#13$wclk$8| #b11100001)
(= |__unbuffered_cnt#16$wclk$8| #b11101100)
(= |__unbuffered_cnt#1$wclk$8| #b00100010)
(= |__unbuffered_cnt#4$rclk$8| #b11111000)
(= |__unbuffered_cnt#7$rclk$8| #b11110111)
(= |__unbuffered_cnt#10$rclk$8| #b11100001)
(= |__unbuffered_cnt#14$rclk$8| #b11101100)
(= |__unbuffered_p3_EAX#4$wclk$8| #b10111011)
(= |__unbuffered_p3_EAX#2$rclk$8| #b11111100)
(= |__unbuffered_p3_EBX#4$wclk$8| #b11000100)
(= |__unbuffered_p3_EBX#2$rclk$8| #b11111100)
(= |a#1$wclk$8| #b01000000)
(= |a#3$rclk$8| #b11000100)
(= |a#2$wclk$8| #b11000101)
(= |main$tmp_guard1#5| #b00000000)
(= |y#15$wclk$8| #b11010101)
(= |y#2$rclk$8| #b11111011)
(= |y#18$wclk$8| #b11110110)
(= |y#22$wclk$8| #b11100000)
(= |y#25$wclk$8| #b11101001)
(= |y#6$rclk$8| #b11111100)
(= |y#1$wclk$8| #b01000111)
(= |y#16$rclk$8| #b11110110)
(= |y#5$wclk$8| #b11111011)
(= |y#14$wclk$8| #b11111100)
(= |y#19$rclk$8| #b11100000)
(= |y#23$rclk$8| #b11101001)
(= |y$r_buff0_thd0#1$wclk$8| #b01001010)
(= |y$r_buff0_thd0#38$rclk$8| #b10111000)
(= |y$r_buff0_thd0#10$wclk$8| #b11111011)
(= |y$r_buff0_thd0#37$wclk$8| #b11111100)
(= |y$r_buff0_thd1#1$wclk$8| #b01001011)
(= |y$r_buff0_thd1#2$rclk$8| #b10111000)
(= |y$r_buff0_thd2#1$wclk$8| #b01001100)
(= |y$r_buff0_thd2#2$rclk$8| #b11110110)
(= |y$r_buff0_thd2#5$rclk$8| #b10111000)
(= |y$r_buff0_thd2#4$wclk$8| #b11110110)
(= |y$r_buff0_thd3#1$wclk$8| #b01001101)
(= |y$r_buff0_thd3#2$rclk$8| #b10111000)
(= |y$r_buff0_thd3#6$rclk$8| #b11100000)
(= |y$r_buff0_thd4#1$wclk$8| #b01001110)
(= |y$r_buff0_thd4#2$rclk$8| #b10111000)
(= |y$r_buff0_thd4#6$wclk$8| #b11101001)
(= |y$r_buff0_thd4#4$rclk$8| #b11101001)
(= |y$r_buff1_thd0#23$wclk$8| #b10111000)
(= |y$r_buff1_thd0#2$rclk$8| #b11111011)
(= |y$r_buff1_thd0#9$rclk$8| #b11111100)
(= |y$r_buff1_thd0#1$wclk$8| #b01011111)
(= |y$r_buff1_thd0#22$rclk$8| #b10111000)
(= |y$r_buff1_thd0#8$wclk$8| #b11111011)
(= |y$r_buff1_thd0#20$wclk$8| #b11111100)
(= |y$r_buff1_thd1#1$wclk$8| #b01110011)
(= |y$r_buff1_thd1#3$rclk$8| #b10111000)
(= |y$r_buff1_thd2#1$wclk$8| #b10010101)
(= |y$r_buff1_thd2#2$rclk$8| #b11110110)
(= |y$r_buff1_thd2#7$wclk$8| #b10111000)
(= |y$r_buff1_thd2#6$rclk$8| #b10111000)
(= |y$r_buff1_thd2#4$wclk$8| #b11110110)
(= |y$r_buff1_thd3#1$wclk$8| #b10010110)
(= |y$r_buff1_thd3#3$rclk$8| #b10111000)
(= |y$r_buff1_thd3#5$rclk$8| #b11100000)
(= |y$r_buff1_thd4#1$wclk$8| #b10010111)
(= |y$r_buff1_thd4#3$rclk$8| #b10111000)
(= |y$r_buff1_thd4#7$wclk$8| #b11101001)
(= |y$r_buff1_thd4#5$rclk$8| #b11101001)
(= |y$r_buff1_thd4#4$wclk$8| #b10111000)
(= |y$w_buff0#16$wclk$8| #b10111000)
(= |y$w_buff0#2$rclk$8| #b11111011)
(= |y$w_buff0#4$rclk$8| #b11111100)
(= |y$w_buff0#1$wclk$8| #b10100001)
(= |y$w_buff0#12$rclk$8| #b11110110)
(= |y$w_buff0#11$wclk$8| #b11111100)
(= |y$w_buff0#14$rclk$8| #b10111000)
(= |y$w_buff0#17$rclk$8| #b11100000)
(= |y$w_buff0#19$rclk$8| #b11101001)
(= |y$w_buff0_used#33$wclk$8| #b11110110)
(= |y$w_buff0_used#2$rclk$8| #b11111011)
(= |y$w_buff0_used#36$wclk$8| #b10111000)
(= |y$w_buff0_used#45$wclk$8| #b11100000)
(= |y$w_buff0_used#48$wclk$8| #b11101001)
(= |y$w_buff0_used#11$rclk$8| #b11111100)
(= |y$w_buff0_used#1$wclk$8| #b10100011)
(= |y$w_buff0_used#31$rclk$8| #b11110110)
(= |y$w_buff0_used#10$wclk$8| #b11111011)
(= |y$w_buff0_used#30$wclk$8| #b11111100)
(= |y$w_buff0_used#34$rclk$8| #b10111000)
(= |y$w_buff0_used#37$rclk$8| #b11100000)
(= |y$w_buff0_used#46$rclk$8| #b11101001)
(= |y$w_buff1#14$wclk$8| #b10111000)
(= |y$w_buff1#2$rclk$8| #b11111011)
(= |y$w_buff1#4$rclk$8| #b11111100)
(= |y$w_buff1#1$wclk$8| #b10100100)
(= |y$w_buff1#12$rclk$8| #b11110110)
(= |y$w_buff1#11$wclk$8| #b11111100)
(= |y$w_buff1#15$rclk$8| #b11100000)
(= |y$w_buff1#17$rclk$8| #b11101001)
(= |y$w_buff1_used#23$wclk$8| #b11110110)
(= |y$w_buff1_used#2$rclk$8| #b11111011)
(= |y$w_buff1_used#24$wclk$8| #b10111000)
(= |y$w_buff1_used#31$wclk$8| #b11100000)
(= |y$w_buff1_used#34$wclk$8| #b11101001)
(= |y$w_buff1_used#9$rclk$8| #b11111100)
(= |y$w_buff1_used#1$wclk$8| #b10100101)
(= |y$w_buff1_used#21$rclk$8| #b11110110)
(= |y$w_buff1_used#8$wclk$8| #b11111011)
(= |y$w_buff1_used#20$wclk$8| #b11111100)
(= |y$w_buff1_used#25$rclk$8| #b11100000)
(= |y$w_buff1_used#32$rclk$8| #b11101001)
(= |z#6$wclk$8| #b10111001)
(= |z#2$rclk$8| #b11111100)
(= |z#7$wclk$8| #b10111010)
(= |z#1$wclk$8| #b10100110)
(= |z#5$rclk$8| #b10111001)
(= |z#8$rclk$8| #b10111011)
(= |x#1$wclk$8| #b01000110)
(= |__unbuffered_p3_EAX#1$wclk$8| #b00100011)
(= |__unbuffered_p3_EBX#1$wclk$8| #b00100100)
(= |y$r_buff0_thd3#5$wclk$8| #b10111000)
(= |y$r_buff0_thd3#14$wclk$8| #b11100000)
(= |y$r_buff1_thd1#4$wclk$8| #b10111000)
(= |y$r_buff1_thd3#4$wclk$8| #b10111000)
(= |y$r_buff1_thd3#11$wclk$8| #b11100000)
(= t1$44$spwnclk$8 #b10101010)
(= t1$49$spwnclk$8 #b10101110)
(= t1$54$spwnclk$8 #b10110100)
(= t1$59$spwnclk$8 #b10111001)
(= |main::1::t824!0@1$wclk$8| #b00000000)
(= |main::1::t825!0@1$wclk$8| #b00000001)
(= |main::1::t826!0@1$wclk$8| #b00000010)
(= |__CPROVER_dead_object#1$wclk$8| #b00000011)
(= |__CPROVER_deallocated#1$wclk$8| #b00000100)
(= |__CPROVER_malloc_is_new_array#1$wclk$8| #b00001100)
(= |__CPROVER_malloc_object#1$wclk$8| #b00001101)
(= |__CPROVER_malloc_size#1$wclk$8| #b00001110)
(= |__CPROVER_memory_leak#1$wclk$8| #b00001111)
(= |__CPROVER_next_thread_id#1$wclk$8| #b00010000)
(= |__CPROVER_pipe_count#1$wclk$8| #b00100000)
(= |main$tmp_guard0#1$wclk$8| #b01000001)
(= |main$tmp_guard1#1$wclk$8| #b01000010)
(= |weak$$choice0#1$wclk$8| #b01000011)
(= |weak$$choice2#1$wclk$8| #b01000101)
(= |y$flush_delayed#1$wclk$8| #b01001000)
(= |y$mem_tmp#1$wclk$8| #b01001001)
(= |y$read_delayed#1$wclk$8| #b10011110)
(= |y$read_delayed_var#1$wclk$8| #b10011111)
(= |main::1::t823!0@1#1$wclk$8| #b10100111)
(= |__CPROVER_next_thread_id#2$wclk$8| #b10101000)
(= |main::1::t823!0@1#2$wclk$8| #b10101001)
(= |main::1::t824!0@1#1$wclk$8| #b10101011)
(= |__CPROVER_next_thread_id#3$rclk$8| #b10101100)
(= |__CPROVER_next_thread_id#5$wclk$8| #b10101100)
(= |main::1::t824!0@1#2$wclk$8| #b10101101)
(= |main::1::t825!0@1#1$wclk$8| #b10101111)
(= |__CPROVER_next_thread_id#6$rclk$8| #b10110000)
(= |__CPROVER_next_thread_id#8$wclk$8| #b10110000)
(= |main::1::t825!0@1#2$wclk$8| #b10110011)
(= |main::1::t826!0@1#1$wclk$8| #b10110101)
(= |__CPROVER_next_thread_id#9$rclk$8| #b10110110)
(= |__CPROVER_next_thread_id#11$wclk$8| #b10110110)
(= |main::1::t826!0@1#2$wclk$8| #b10110111)
(= |main$tmp_guard0#2$wclk$8| #b11111001)
(= |main$tmp_guard0#3$rclk$8| #b11111010)
(= |y$r_buff0_thd0#2$rclk$8| #b11111011)
(= |main$tmp_guard1#3$rclk$8| #b11111100)
(= |weak$$choice0#3$rclk$8| #b11111100)
(= |weak$$choice2#3$rclk$8| #b11111100)
(= |y$flush_delayed#3$rclk$8| #b11111100)
(= |y$mem_tmp#3$rclk$8| #b11111100)
(= |y$r_buff0_thd0#11$rclk$8| #b11111100)
(= |main$tmp_guard1#4$wclk$8| #b11111100)
(= |y$mem_tmp#5$wclk$8| #b11111100)
(= |y$flush_delayed#7$wclk$8| #b11111100)
(= |weak$$choice2#11$wclk$8| #b11111100)
(= |weak$$choice0#4$wclk$8| #b11111100)
(= |main$tmp_guard1#5$rclk$8| #b11111110)
(= |main$tmp_guard1#6$rclk$8| #b11111111)
(= array_of.0 @fun_15)
(= |__CPROVER_threads_exited#2| @fun_9)
(= |__CPROVER_threads_exited#4| @fun_12)
(= |__CPROVER_threads_exited#6| @fun_13)
(= |__CPROVER_threads_exited#8| @fun_15)
(function @fun_15
 (type (Array (_ BitVec 32) (_ BitVec 1)))
 (= (@fun_15 #b00000000000000000000000000000000) #b0)
 (= (@fun_15 #b10000000000000000000000000000000) #b0)
 (= (@fun_15 #b01100000000000000000000000000000) #b0)
 (default #b1))
(function @fun_9
 (type (Array (_ BitVec 32) (_ BitVec 1)))
 (default #b1))
(function @fun_12
 (type (Array (_ BitVec 32) (_ BitVec 1)))
 (= (@fun_12 #b00000000000000000000000000000000) #b0)
 (= (@fun_12 #b10000000000000000000000000000000) #b0)
 (default #b1))
(function @fun_13
 (type (Array (_ BitVec 32) (_ BitVec 1)))
 (= (@fun_13 #b10000000000000000000000000000000) #b0)
 (default #b1))

real	0m0.034s
user	0m0.027s
sys	0m0.007s
State: AC Run_time: 0.03623819351196289